
  32    4
  10   10   10   10

   0   0   0   0   0  13 2 20 21 22 23 24 25 26 27 28 29 30 31 
   1   1   1   0   1   2 19 3 
   9   3   3   1   0   1 4 
  10   3   5   3   0   1 5 
   8   3   3   8   0   1 6 
   2   7   6   0   5   1 7 
   6   3   5   5   0   2 18 8 
  10   4   4   4   0   1 9 
   1   4   6   5   0   1 10 
   7   6   2   5   0   1 11 
   3   0   3   5   4   2 17 12 
   7   5   3   0   5   1 13 
   7   2   3   0   4   1 14 
   4   0   5   2   2   1 15 
   8   6   3   4   0   1 16 
   4   2   0   2   4   1 32
   9   2   0   2   4   1 32
   5   0   3   6   3   1 32
   8   0   4   6   6   1 32
   2   3   5   0   4   1 32
   6   0   3   4   2   1 32
   6   3   3   0   5   1 32
   7   6   5   0   6   1 32
   9   0   5   7   5   1 32
   7   4   5   3   0   1 32
   2   4   5   2   0   1 32
   6   4   4   3   0   1 32
   2   8   0   3   5   1 32
   2   2   6   4   0   1 32
   8   8   5   0   5   1 32
   1   3   3   0   2   1 32
   0   0   0   0   0   0 
